\ Model Staff Scheduling Problem with Shift Overlap Constraints
\ LP format - for model browsing. Use MPS format to capture full model detail.
Minimize
  85.69246958384113 x[0,0] + 69.46803569705946 x[0,1]
   + 69.33374645165091 x[0,2] + 66.77421683290939 x[0,3]
   + 69.43961163237174 x[0,4] + 33.35423334357905 x[0,5]
   + 86.46574291422959 x[0,6] + 91.17427434240389 x[0,7]
   + 59.11729004185105 x[1,0] + 97.59155453686957 x[1,1]
   + 17.5319495139194 x[1,2] + 43.24392863803472 x[1,3]
   + 73.16352969097576 x[1,4] + 65.36885314763055 x[1,5]
   + 56.16597141021977 x[1,6] + 55.40110885832896 x[1,7]
   + 99.37461733969708 x[2,0] + 62.62416534403133 x[2,1]
   + 91.07492143805719 x[2,2] + 90.77021509465652 x[2,3]
   + 17.51507153988642 x[2,4] + 50.00111338963159 x[2,5]
   + 12.01718461354155 x[2,6] + 85.2652254579601 x[2,7]
   + 55.32845703018054 x[3,0] + 62.88826604792771 x[3,1]
   + 36.07899884508776 x[3,2] + 69.53377117022555 x[3,3]
   + 12.74822073711974 x[3,4] + 83.8313697027121 x[3,5]
   + 16.35484514643057 x[3,6] + 59.19563467448067 x[3,7]
   + 45.91014914568306 x[4,0] + 33.40321531422634 x[4,1]
   + 58.15935531587643 x[4,2] + 24.46446909163102 x[4,3]
   + 20.82186006468699 x[4,4] + 95.21228163850277 x[4,5]
   + 89.5097218606217 x[4,6] + 56.97516632216483 x[4,7]
Subject To
 task_0_shift_0: x[0,0] >= 3.849993177206212
 task_0_shift_1: x[0,1] >= 2.549085143064501
 task_0_shift_2: x[0,2] >= 3.299695204906356
 task_0_shift_3: x[0,3] >= 6.479642946396204
 task_0_shift_4: x[0,4] >= 1.341080280173476
 task_0_shift_5: x[0,5] >= 6.306811576177624
 task_0_shift_6: x[0,6] >= 6.819256562524874
 task_0_shift_7: x[0,7] >= 6.381400021876432
 task_1_shift_0: x[1,0] >= 5.472152429546036
 task_1_shift_1: x[1,1] >= 9.213183332644416
 task_1_shift_2: x[1,2] >= 8.04993276637034
 task_1_shift_3: x[1,3] >= 5.762691258693345
 task_1_shift_4: x[1,4] >= 5.435419825836527
 task_1_shift_5: x[1,5] >= 3.013126521052735
 task_1_shift_6: x[1,6] >= 1.586067846327826
 task_1_shift_7: x[1,7] >= 5.16922982270162
 task_2_shift_0: x[2,0] >= 4.951156110811244
 task_2_shift_1: x[2,1] >= 2.082501391492692
 task_2_shift_2: x[2,2] >= 4.731186385750704
 task_2_shift_3: x[2,3] >= 6.426882825857983
 task_2_shift_4: x[2,4] >= 7.749160823475898
 task_2_shift_5: x[2,5] >= 1.918498767152315
 task_2_shift_6: x[2,6] >= 9.172681774482399
 task_2_shift_7: x[2,7] >= 9.599068432272903
 task_3_shift_0: x[3,0] >= 2.335958771009387
 task_3_shift_1: x[3,1] >= 5.364598822443897
 task_3_shift_2: x[3,2] >= 9.572917293324601
 task_3_shift_3: x[3,3] >= 5.365192542366883
 task_3_shift_4: x[3,4] >= 6.13916110542094
 task_3_shift_5: x[3,5] >= 3.234176256505324
 task_3_shift_6: x[3,6] >= 8.478248123584379
 task_3_shift_7: x[3,7] >= 7.859755947447388
 task_4_shift_0: x[4,0] >= 4.932043326252237
 task_4_shift_1: x[4,1] >= 2.898418773954448
 task_4_shift_2: x[4,2] >= 7.199957651670037
 task_4_shift_3: x[4,3] >= 5.638493024018284
 task_4_shift_4: x[4,4] >= 6.318775589436979
 task_4_shift_5: x[4,5] >= 3.60195293460619
 task_4_shift_6: x[4,6] >= 6.116162815747609
 task_4_shift_7: x[4,7] >= 2.025445989974104
 shift_0_availability: x[0,0] + x[1,0] + x[2,0] + x[3,0] + x[4,0]
   <= 15.58266342470257
 shift_1_availability: x[0,1] + x[1,1] + x[2,1] + x[3,1] + x[4,1]
   <= 18.57368989803447
 shift_2_availability: x[0,2] + x[1,2] + x[2,2] + x[3,2] + x[4,2]
   <= 12.03923181163407
 shift_3_availability: x[0,3] + x[1,3] + x[2,3] + x[3,3] + x[4,3]
   <= 28.42967177027873
 shift_4_availability: x[0,4] + x[1,4] + x[2,4] + x[3,4] + x[4,4]
   <= 46.16305844204138
 shift_5_availability: x[0,5] + x[1,5] + x[2,5] + x[3,5] + x[4,5]
   <= 43.77003525839095
 shift_6_availability: x[0,6] + x[1,6] + x[2,6] + x[3,6] + x[4,6]
   <= 14.22764750987971
 shift_7_availability: x[0,7] + x[1,7] + x[2,7] + x[3,7] + x[4,7]
   <= 26.42967672792746
 overlap_task_0_shift_0_1: x[0,0] + x[0,1] <= 3.949782279941508
 overlap_task_1_shift_0_1: x[1,0] + x[1,1] <= 3.949782279941508
 overlap_task_2_shift_0_1: x[2,0] + x[2,1] <= 3.949782279941508
 overlap_task_3_shift_0_1: x[3,0] + x[3,1] <= 3.949782279941508
 overlap_task_4_shift_0_1: x[4,0] + x[4,1] <= 3.949782279941508
 overlap_task_0_shift_1_2: x[0,1] + x[0,2] <= 1.932551281782616
 overlap_task_1_shift_1_2: x[1,1] + x[1,2] <= 1.932551281782616
 overlap_task_2_shift_1_2: x[2,1] + x[2,2] <= 1.932551281782616
 overlap_task_3_shift_1_2: x[3,1] + x[3,2] <= 1.932551281782616
 overlap_task_4_shift_1_2: x[4,1] + x[4,2] <= 1.932551281782616
 overlap_task_0_shift_2_3: x[0,2] + x[0,3] <= 4.931424005042123
 overlap_task_1_shift_2_3: x[1,2] + x[1,3] <= 4.931424005042123
 overlap_task_2_shift_2_3: x[2,2] + x[2,3] <= 4.931424005042123
 overlap_task_3_shift_2_3: x[3,2] + x[3,3] <= 4.931424005042123
 overlap_task_4_shift_2_3: x[4,2] + x[4,3] <= 4.931424005042123
 overlap_task_0_shift_3_4: x[0,3] + x[0,4] <= 4.890076622570991
 overlap_task_1_shift_3_4: x[1,3] + x[1,4] <= 4.890076622570991
 overlap_task_2_shift_3_4: x[2,3] + x[2,4] <= 4.890076622570991
 overlap_task_3_shift_3_4: x[3,3] + x[3,4] <= 4.890076622570991
 overlap_task_4_shift_3_4: x[4,3] + x[4,4] <= 4.890076622570991
 overlap_task_0_shift_4_5: x[0,4] + x[0,5] <= 2.495197130372162
 overlap_task_1_shift_4_5: x[1,4] + x[1,5] <= 2.495197130372162
 overlap_task_2_shift_4_5: x[2,4] + x[2,5] <= 2.495197130372162
 overlap_task_3_shift_4_5: x[3,4] + x[3,5] <= 2.495197130372162
 overlap_task_4_shift_4_5: x[4,4] + x[4,5] <= 2.495197130372162
 overlap_task_0_shift_5_6: x[0,5] + x[0,6] <= 4.73002788458866
 overlap_task_1_shift_5_6: x[1,5] + x[1,6] <= 4.73002788458866
 overlap_task_2_shift_5_6: x[2,5] + x[2,6] <= 4.73002788458866
 overlap_task_3_shift_5_6: x[3,5] + x[3,6] <= 4.73002788458866
 overlap_task_4_shift_5_6: x[4,5] + x[4,6] <= 4.73002788458866
 overlap_task_0_shift_6_7: x[0,6] + x[0,7] <= 3.156399016755075
 overlap_task_1_shift_6_7: x[1,6] + x[1,7] <= 3.156399016755075
 overlap_task_2_shift_6_7: x[2,6] + x[2,7] <= 3.156399016755075
 overlap_task_3_shift_6_7: x[3,6] + x[3,7] <= 3.156399016755075
 overlap_task_4_shift_6_7: x[4,6] + x[4,7] <= 3.156399016755075
Bounds
End
